files/upTests/tupley20/0001.eprime.solution
language ESSENCE' 1.0
$ minion Nodes: 3
$ minion TotalTime: 0.000898
$ Savile Row TotalTime: 0.339
letting pain_tuple1_tuple1_Explicit be [[[2]], 
[[1]]]
letting pain_tuple1_tuple2_Explicit be [[[5]], 
[[4]]]
letting pain_tuple2_ExplicitVarSize_tuple1 be [[[0, 1]], 
[[0, 1]]]
letting pain_tuple2_ExplicitVarSize_tuple2 be [[[8, 8]], 
[[8, 9]]]
